solving instance mcf arcs c44 3 6 sinabc1
Couenne 0.5.8 -- an Open-Source solver for Mixed Integer Nonlinear Optimization
Mailing list: couenne@list.coin-or.org
Instructions: http://www.coin-or.org/Couenne
couenne: 
ANALYSIS TEST: Reading problem: 0.0 seconds
Reformulating problem: 3.8 seconds
NLP0012I 
              Num      Status      Obj             It       time                 Location
NLP0014I             1         OPT 244054.66      104 85.348778
NLP0014I             2         OPT 449574.26      227 204.76468
Couenne: new cutoff value 4.4957426440e+05 (369.417 seconds)
Loaded instance "/tmp/jl_ghUla9/model.nl"
Constraints:         1722
Variables:          12682 (314 integer)
Auxiliaries:         1217 (0 integer)

Coin0506I Presolve 4045 (-618) rows, 13221 (-678) columns and 53783 (-1256) elements
Clp0030I 0 infeas 79084, obj 0 - mu 1000, its 0, 0 interior
Clp0030I 1 infeas 41889.414, obj 0 - mu 1000, its 2, 2363 interior
Clp0030I 2 infeas 504.95302, obj 0 - mu 1000, its 52, 7357 interior
Clp0030I 3 infeas 459.59776, obj 0 - mu 1000, its 52, 7936 interior
Clp0030I 4 infeas 444.86751, obj 0 - mu 1000, its 52, 8166 interior
Clp0030I 5 infeas 433.3215, obj 0 - mu 1000, its 52, 8331 interior
Clp0030I 6 infeas 422.87436, obj 0 - mu 1000, its 52, 8401 interior
Clp0030I 7 infeas 390.59496, obj 0 - mu 333.3, its 52, 8718 interior
Clp0030I 8 infeas 379.51095, obj 0 - mu 333.3, its 52, 8806 interior
Clp0030I 9 infeas 371.67759, obj 0 - mu 333.3, its 52, 8900 interior
Clp0030I 10 infeas 364.66929, obj 0 - mu 333.3, its 52, 8956 interior
Clp0030I 11 infeas 358.68958, obj 0 - mu 333.3, its 52, 8998 interior
Clp0030I 12 infeas 352.99934, obj 0 - mu 333.3, its 52, 9033 interior
Clp0030I 13 infeas 336.29281, obj 0 - mu 111.08889, its 52, 9324 interior
Clp0030I 14 infeas 331.34976, obj 0 - mu 111.08889, its 52, 9374 interior
Clp0030I 15 infeas 326.95715, obj 0 - mu 111.08889, its 52, 9418 interior
Clp0030I 16 infeas 323.00915, obj 0 - mu 111.08889, its 52, 9447 interior
Clp0030I 17 infeas 319.15879, obj 0 - mu 111.08889, its 52, 9470 interior
Clp0030I 18 infeas 315.46614, obj 0 - mu 111.08889, its 52, 9499 interior
Clp0030I 19 infeas 306.58714, obj 0 - mu 37.025927, its 52, 9722 interior
Clp0030I 20 infeas 303.26563, obj 0 - mu 37.025927, its 52, 9763 interior
Clp0030I 21 infeas 300.28933, obj 0 - mu 37.025927, its 52, 9803 interior
Clp0030I 22 infeas 293.49345, obj 0 - mu 12.340741, its 52, 9941 interior
Clp0030I 23 infeas 290.77107, obj 0 - mu 12.340741, its 52, 9978 interior
Clp0030I 24 infeas 278.2274, obj 0 - mu 4.1131691, its 105, 9318 interior
Clp0030I 25 infeas 260.5002, obj 0 - mu 4.1131691, its 105, 9409 interior
Clp0030I 26 infeas 249.84434, obj 0 - mu 4.1131691, its 105, 9576 interior
Clp0030I 27 infeas 238.29333, obj 0 - mu 4.1131691, its 105, 9855 interior
Clp0030I 28 infeas 228.89809, obj 0 - mu 4.1131691, its 105, 9901 interior
Clp0030I 29 infeas 221.79941, obj 0 - mu 4.1131691, its 105, 10070 interior
Clp0030I 30 infeas 215.18181, obj 0 - mu 1.3709193, its 105, 9048 interior
Clp0030I 31 infeas 209.35226, obj 0 - mu 1.3709193, its 105, 8718 interior
Clp0030I 32 infeas 203.79216, obj 0 - mu 1.3709193, its 105, 8955 interior
Clp0030I 33 infeas 199.75948, obj 0 - mu 1.3709193, its 105, 9244 interior
Clp0030I 34 infeas 192.58255, obj 0 - mu 1.3709193, its 105, 8586 interior
Clp0030I 35 infeas 186.12471, obj 0 - mu 1.3709193, its 105, 8408 interior
Clp0030I 36 infeas 182.91723, obj 0 - mu 0.45692739, its 105, 8623 interior
Clp0030I 37 infeas 176.91628, obj 0 - mu 0.45692739, its 105, 7914 interior
Clp0030I 38 infeas 171.66481, obj 0 - mu 0.45692739, its 105, 7058 interior
Clp0030I 39 infeas 164.66509, obj 0 - mu 0.45692739, its 105, 7073 interior
Clp0030I 40 infeas 158.13134, obj 0 - mu 0.45692739, its 105, 6499 interior
Clp0030I 41 infeas 150.24458, obj 0 - mu 0.45692739, its 105, 6368 interior
Clp0030I 42 infeas 146.08398, obj 0 - mu 0.1522939, its 105, 7147 interior
Clp0030I 43 infeas 143.78085, obj 0 - mu 0.1522939, its 105, 7162 interior
Clp0030I 44 infeas 140.56554, obj 0 - mu 0.1522939, its 105, 6575 interior
Clp0030I 45 infeas 136.70809, obj 0 - mu 0.1522939, its 105, 6481 interior
Clp0030I 46 infeas 133.92789, obj 0 - mu 0.1522939, its 105, 6071 interior
Clp0030I 47 infeas 129.61143, obj 0 - mu 0.1522939, its 105, 5848 interior
Clp0030I 48 infeas 126.19367, obj 0 - mu 0.050759557, its 105, 7469 interior
Clp0030I 49 infeas 125.30326, obj 0 - mu 0.050759557, its 105, 6466 interior
Clp0030I 50 infeas 123.68951, obj 0 - mu 0.050759557, its 105, 6279 interior
Clp0006I 0  Obj 116.92564 Primal inf 117.74549 (1942) Dual inf 1.1150047e+14 (8456)
Clp0006I 155  Obj 116.92564 Primal inf 117.45292 (1792) Dual inf 1.1051165e+14 (8277)
Clp0006I 312  Obj 265.07416 Primal inf 116.55166 (1636) Dual inf 1.1124693e+14 (8087)
Clp0006I 505  Obj 265.07416 Primal inf 115.78873 (1521) Dual inf 1.0969626e+14 (7961)
Clp0006I 756  Obj 265.07416 Primal inf 114.47217 (1418) Dual inf 1.1738038e+14 (8375)
Clp0006I 1065  Obj 265.07416 Primal inf 113.91579 (1338) Dual inf 1.0927345e+14 (7930)
Clp0006I 1369  Obj 265.07416 Primal inf 113.1938 (1269) Dual inf 1.0663061e+14 (7686)
Clp0006I 1616  Obj 265.07416 Primal inf 112.77655 (1216) Dual inf 9.9871225e+13 (7344)
Clp0006I 1916  Obj 265.07416 Primal inf 111.98579 (1156) Dual inf 9.5486683e+13 (7493)
Clp0006I 2225  Obj 265.07416 Primal inf 111.52934 (1111) Dual inf 9.1146551e+13 (7443)
Clp0006I 2498  Obj 265.07416 Primal inf 111.13985 (1053) Dual inf 8.0082876e+13 (7313)
Clp0006I 2773  Obj 265.07416 Primal inf 110.99137 (995) Dual inf 7.1676625e+13 (5827)
Clp0006I 2925  Obj 265.07416 Primal inf 110.55546 (968) Dual inf 6.7449159e+13 (6822)
Clp0006I 3223  Obj 265.07416 Primal inf 110.44434 (914) Dual inf 5.9870911e+13 (6333)
Clp0006I 3471  Obj 265.07416 Primal inf 110.41352 (871) Dual inf 5.4158092e+13 (5534)
Clp0006I 3718  Obj 265.07416 Primal inf 109.87319 (826) Dual inf 4.9595983e+13 (4124)
Clp0006I 3941  Obj 265.07416 Primal inf 109.58269 (778) Dual inf 5.5945704e+13 (7083)
Clp0006I 4194  Obj 265.07416 Primal inf 109.43942 (738) Dual inf 3.8468204e+13 (4254)
Clp0006I 4464  Obj 265.07416 Primal inf 109.36784 (695) Dual inf 3.0821587e+13 (5708)
Clp0006I 4732  Obj 265.07416 Primal inf 109.08067 (652) Dual inf 2.5662701e+13 (4755)
Clp0006I 5042  Obj 265.07416 Primal inf 109.04221 (592) Dual inf 1.6487615e+13 (3004)
Clp0006I 5337  Obj 265.07416 Primal inf 109.02134 (555) Dual inf 1.1035089e+13 (6215)
Clp0006I 5555  Obj 265.07416 Primal inf 99.226838 (467) Dual inf 1.3639e+13 (6101)
Clp0006I 5734  Obj 1517.3848 Primal inf 88.063865 (375) Dual inf 1.1995686e+13 (5246)
Clp0006I 5955  Obj 1517.3848 Primal inf 75.306957 (248) Dual inf 1.1668049e+13 (6048)
Clp0006I 6176  Obj 1517.3848 Primal inf 62.153505 (105) Dual inf 9.3809143e+12 (5407)
Clp0029I End of values pass after 6247 iterations
Clp0006I 6247  Obj 1517.3848 Primal inf 58.37042 (60) Dual inf 5.3943369e+12 (4719)
Clp0006I 6402  Obj 75454.597 Primal inf 11.40283 (9) Dual inf 2.7136018e+12 (4912)
Clp0006I 6557  Obj 57400.476 Dual inf 297381.95 (4049)
Clp0006I 6712  Obj 48556.472 Dual inf 265797.12 (4341)
Clp0006I 6867  Obj 39145.525 Dual inf 1049705.8 (4742)
Clp0006I 7022  Obj 29559.672 Dual inf 13037635 (5379)
Clp0006I 7177  Obj 24709.367 Dual inf 1194376.3 (4807)
Clp0006I 7332  Obj 21241.501 Dual inf 730386.76 (4913)
Clp0006I 7487  Obj 16771.964 Dual inf 886335.83 (5179)
Clp0006I 7642  Obj 14870.494 Dual inf 1349299.4 (5885)
Clp0006I 7797  Obj 13651.274 Dual inf 4470977.3 (4768)
Clp0006I 7952  Obj 11906.469 Dual inf 810340.81 (4711)
Clp0006I 8107  Obj 10600.675 Dual inf 796554.34 (5850)
Clp0006I 8262  Obj 9217.3809 Dual inf 697951.28 (4963)
Clp0006I 8417  Obj 8418.1994 Dual inf 459868.77 (5011)
Clp0006I 8572  Obj 7675.2803 Dual inf 116720.86 (4162)
Clp0006I 8727  Obj 7186.5041 Dual inf 151078.36 (3883)
Clp0006I 8882  Obj 6255.7782 Dual inf 107776.11 (4425)
Clp0006I 9037  Obj 4757.313 Dual inf 43861.376 (2357)
Clp0006I 9192  Obj 4018.5349 Dual inf 203259.86 (4105)
Clp0006I 9347  Obj 3564.7411 Dual inf 156187.51 (4536)
Clp0006I 9502  Obj 3294.0447 Dual inf 19826.444 (1927)
Clp0006I 9657  Obj 3104.8422 Dual inf 65694.487 (3806)
Clp0006I 9812  Obj 2928.2244 Dual inf 183395.05 (4616)
Clp0006I 9967  Obj 2723.6656 Dual inf 52.465827 (15)
Clp0006I 9970  Obj 2723.6656
Clp0000I Optimal - objective value 2723.6656
Clp0032I Optimal objective 2723.665596 - 9970 iterations time 6.162, Presolve 0.08, Idiot 3.55
Clp0000I Optimal - objective value 2723.6656
NLP Heuristic: time limit reached.
Clp0000I Optimal - objective value 2723.6656
Optimality Based BT: 1 improved bounds
Probing: 0 improved bounds
Cbc0013I At root node, 0 cuts changed objective from 2723.6656 to 2723.6656 in 1 passes
Cbc0014I Cut generator 0 (Couenne convexifier cuts) - 0 row cuts average 0.0 elements, 2 column cuts (2 active)
Cbc0020I Exiting on maximum time
Cbc0005I Partial search - best objective 1e+50 (best possible 2723.6656), took 0 iterations and 0 nodes (3222.54 seconds)
Cbc0035I Maximum depth 0, 0 variables fixed on reduced cost

 	"Not finished"

Linearization cuts added at root node:       4663
Linearization cuts added in total:           4663  (separation time: 0.185492s)
Total solve time:                         3228.72s (3228.72s in branch-and-bound)
Lower bound:                              2723.67
Upper bound:                               449574  (gap: 16400.20%)
Branch-and-bound nodes:                         0
Stats: /tmp/jl_ghUla9/model.nl 12682 [var]  314 [int] 1722 [con] 1217 [aux]   4663 [root]     4663 [tot] 0.185492 [sep]  3228.72 [time]  3228.73 [bb]         2.723666e+03 [lower]         4.495743e+05 [upper]       0 [nodes]
Performance of                           FBBT:	   0.294699s,        4 runs. fix:          0 shrnk:    1061.42 ubd:          0 2ubd:          0 infeas:          0
Performance of                           OBBT:	    1145.43s,        1 runs. fix:          0 shrnk:   0.305602 ubd:          0 2ubd:          0 infeas:          0
ERROR: LoadError: MathOptInterface.GetAttributeNotAllowed{MathOptInterface.ObjectiveBound}: Getting attribute MathOptInterface.ObjectiveBound() cannot be performed: AmplNLWriter.Optimizer does not support getting the attribute MathOptInterface.ObjectiveBound(). You may want to use a `CachingOptimizer` in `AUTOMATIC` mode or you may need to call `reset_optimizer` before doing this operation if the `CachingOptimizer` is in `MANUAL` mode.
Stacktrace:
  [1] get_fallback(model::AmplNLWriter.Optimizer, attr::MathOptInterface.ObjectiveBound)
    @ MathOptInterface ~/.julia/packages/MathOptInterface/gLl4d/src/attributes.jl:409
  [2] get(::AmplNLWriter.Optimizer, ::MathOptInterface.ObjectiveBound)
    @ MathOptInterface ~/.julia/packages/MathOptInterface/gLl4d/src/attributes.jl:390
  [3] _get_model_attribute(model::MathOptInterface.Utilities.CachingOptimizer{AmplNLWriter.Optimizer, MathOptInterface.Utilities.UniversalFallback{MathOptInterface.Utilities.Model{Float64}}}, attr::MathOptInterface.ObjectiveBound)
    @ MathOptInterface.Utilities ~/.julia/packages/MathOptInterface/gLl4d/src/Utilities/cachingoptimizer.jl:865
  [4] get(model::MathOptInterface.Utilities.CachingOptimizer{AmplNLWriter.Optimizer, MathOptInterface.Utilities.UniversalFallback{MathOptInterface.Utilities.Model{Float64}}}, attr::MathOptInterface.ObjectiveBound)
    @ MathOptInterface.Utilities ~/.julia/packages/MathOptInterface/gLl4d/src/Utilities/cachingoptimizer.jl:900
  [5] get(b::MathOptInterface.Bridges.LazyBridgeOptimizer{MathOptInterface.Utilities.CachingOptimizer{AmplNLWriter.Optimizer, MathOptInterface.Utilities.UniversalFallback{MathOptInterface.Utilities.Model{Float64}}}}, attr::MathOptInterface.ObjectiveBound)
    @ MathOptInterface.Bridges ~/.julia/packages/MathOptInterface/gLl4d/src/Bridges/bridge_optimizer.jl:889
  [6] _get_model_attribute(model::MathOptInterface.Utilities.CachingOptimizer{MathOptInterface.Bridges.LazyBridgeOptimizer{MathOptInterface.Utilities.CachingOptimizer{AmplNLWriter.Optimizer, MathOptInterface.Utilities.UniversalFallback{MathOptInterface.Utilities.Model{Float64}}}}, MathOptInterface.Utilities.UniversalFallback{MathOptInterface.Utilities.Model{Float64}}}, attr::MathOptInterface.ObjectiveBound)
    @ MathOptInterface.Utilities ~/.julia/packages/MathOptInterface/gLl4d/src/Utilities/cachingoptimizer.jl:865
  [7] get(model::MathOptInterface.Utilities.CachingOptimizer{MathOptInterface.Bridges.LazyBridgeOptimizer{MathOptInterface.Utilities.CachingOptimizer{AmplNLWriter.Optimizer, MathOptInterface.Utilities.UniversalFallback{MathOptInterface.Utilities.Model{Float64}}}}, MathOptInterface.Utilities.UniversalFallback{MathOptInterface.Utilities.Model{Float64}}}, attr::MathOptInterface.ObjectiveBound)
    @ MathOptInterface.Utilities ~/.julia/packages/MathOptInterface/gLl4d/src/Utilities/cachingoptimizer.jl:900
  [8] _moi_get_result(model::MathOptInterface.Utilities.CachingOptimizer{MathOptInterface.Bridges.LazyBridgeOptimizer{MathOptInterface.Utilities.CachingOptimizer{AmplNLWriter.Optimizer, MathOptInterface.Utilities.UniversalFallback{MathOptInterface.Utilities.Model{Float64}}}}, MathOptInterface.Utilities.UniversalFallback{MathOptInterface.Utilities.Model{Float64}}}, args::MathOptInterface.ObjectiveBound)
    @ JuMP ~/.julia/packages/JuMP/FEKLB/src/optimizer_interface.jl:1053
  [9] get(model::JuMP.Model, attr::MathOptInterface.ObjectiveBound)
    @ JuMP ~/.julia/packages/JuMP/FEKLB/src/optimizer_interface.jl:1073
 [10] objective_bound(model::JuMP.Model)
    @ JuMP ~/.julia/packages/JuMP/FEKLB/src/objective.jl:78
 [11] nl_mcf(ptype::String, graph::String, commodities::String, nodes::String, incr::Int64, cost::Symbol, solver::AmplNLWriter.Optimizer, solver_params::Vector{Any}; restrict_to_commodities::Int64, solve::Bool, write_nl::Bool)
    @ IterativePWLB ~/git/ipwlb/code/sources/IterativePWLB/src/nlsolver.jl:1332
 [12] top-level scope
    @ ~/git/ipwlb/code/sources/IterativePWLB/test/couenne/mcf_arcs/script.jl:18
in expression starting at /home/ccontard/git/ipwlb/code/sources/IterativePWLB/test/couenne/mcf_arcs/script.jl:18
